p tw 120 240
1 2
1 33
1 77
1 38
2 55
2 88
2 39
33 44
33 25
33 40
44 66
44 26
44 41
55 66
55 31
55 42
66 32
66 43
77 88
77 99
77 64
88 3
88 65
99 110
99 27
99 67
110 14
110 28
110 68
3 14
3 34
3 69
14 35
14 70
25 26
25 27
25 91
26 29
26 92
27 28
27 93
28 30
28 94
29 30
29 36
29 95
30 37
30 96
31 32
31 34
31 117
32 36
32 118
34 35
34 119
35 37
35 120
36 37
36 4
37 5
38 39
38 40
38 45
39 42
39 46
40 41
40 51
41 43
41 52
42 43
42 58
43 59
45 46
45 47
45 71
46 49
46 72
47 48
47 53
47 73
48 50
48 54
48 74
49 50
49 60
49 75
50 61
50 76
51 52
51 53
51 97
52 56
52 98
53 54
53 100
54 57
54 101
56 57
56 62
56 102
57 63
57 103
58 59
58 60
58 6
59 62
59 7
60 61
60 8
61 63
61 9
62 63
62 10
63 11
64 65
64 67
64 71
65 69
65 72
67 68
67 78
68 70
68 79
69 70
69 84
70 85
71 72
71 73
72 75
73 74
73 80
74 76
74 81
75 76
75 86
76 87
78 79
78 80
78 104
79 82
79 105
80 81
80 106
81 83
81 107
82 83
82 89
82 108
83 90
83 109
84 85
84 86
84 12
85 89
85 13
86 87
86 15
87 90
87 16
89 90
89 17
90 18
91 92
91 93
91 97
92 95
92 98
93 94
93 104
94 96
94 105
95 96
95 111
96 112
97 98
97 100
98 102
100 101
100 106
101 103
101 107
102 103
102 113
103 114
104 105
104 106
105 108
106 107
107 109
108 109
108 115
109 116
111 112
111 113
111 19
112 115
112 20
113 114
113 21
114 116
114 22
115 116
115 23
116 24
117 118
117 119
117 6
118 4
118 7
119 120
119 12
120 5
120 13
4 5
4 19
5 20
6 7
6 8
7 10
8 9
8 15
9 11
9 16
10 11
10 21
11 22
12 13
12 15
13 17
15 16
16 18
17 18
17 23
18 24
19 20
19 21
20 23
21 22
22 24
23 24
